data;

param num_top:=3;

#nodes and edges of the physical network
param n := 10;

set E := (1,2) (1,3) (1,7) (2,4) (2,7) (3,5) (4,8) (5,6) (5,7) (6,7) (6,9) (7,8) (7,9) (8,10) (9,10) ;

#nodes and edges of the virtual networks
set Nl[1] := 9 4 3 6 5 ;
set Nl[2] := 9 2 3 7 5 ;
set Nl[3] := 4 5 3 7 2 ;

set El[1] := (4,9) (3,4) (3,6) (5,6) (5,9) (4,6) (3,5) (4,5) (6,9) (3,9) ;
set El[2] := (2,9) (2,3) (3,7) (5,7) (5,9) (7,9) (2,5) (3,9) (2,7) (3,5) ;
set El[3] := (4,5) (3,5) (3,7) (2,7) (2,4) (5,7) (2,3) (3,4) (2,5) (4,7) ;
